c turning on binary mode checking
c parsing input formula with 259840 variables and 1039914 clauses
c finished parsing, read 37490904 bytes from proof file
c detected empty clause; start verification via backward checking
c 36161 of 1039914 clauses in core                            
c 64597 of 770101 lemmas in core using 721059 resolution steps
c 0 RAT lemmas in core; 7369 redundant literals in core lemmas
s VERIFIED
c verification time: 4.706 seconds
